100
32
22
12
13
12
21
1
26
6
19
20
18
27
3
7
2
15
25
6
12
14
20
13
18
19
26
6
15
1
18
6
2
14
21
19
20
22
26
22
23
9
17
18
22
3
2
16
1
16
7
4
19
22
15
8
28
23
10
9
14
6
22
7
14
12
16
24
3
1
13
11
13
22
11
8
13
1
12
29
17
18
18
3
21
2
20
15
11
3
16
22
1
16
4
12
14
8
4
2
10
13